687869
221,127,140,23,65,104,215,99,52,91,17,55,53,174,201,98,189,218,105,40,120,179,102,186,11,145,87,108,185,170,149,89,169,141,227,3,20,216,152,128,32,223,37,202,5,103,211,44,229,171,167,92,212,57,58,220,51,24,122,84,166,187,180,135,194,118,192,83,78,94,56,28,113,85,69,125,190,151,121,176,225,68,22,158,207,2,184,188,15,59,137,14,136,63,29,7,119,96,193,164,13,109,200,9,197,199,64,153,163,173,75,138,10,142,196,213,45,124,226,18,133,110,47,12,224,46,16,222,175,219,43,4,155,210,144,143,25,21,88,90,95,165,67,8,100,183,115,160,106,195,178,191,36,33,74,204,214,77,27,150,49,107,93,34,86,54,61,101,129,80,39,168,26,111,154,132,228,35,6,182,19,116,209,62,71,0,161,134,82,156,73,42,30,126,146,206,38,66,48,117,70,139,31,162,177,198,97,50,41,159,112,72,208,217,205,172,123,130,147,60,181,79,131,203,1,114,148,81,157,76
